(set-logic QF_S)
(declare-fun var_0xINPUT_25656 () String)
(assert (and (= (len var_0xINPUT_25656) 0) (= (len var_0xINPUT_25656) 0) (not (= var_0xINPUT_25656 "Example:")) (= (len var_0xINPUT_25656) 0) (not (= var_0xINPUT_25656 "4PH2ujcENG"))))
(check-sat var_0xINPUT_25656)